33D32945 STP File, STP Format Version 1.0

SECTION Comments
Name "edge_n15_d5_s31"
Problem "Euclidean Steiner Tree Problem"
Remark "Generated with STPGenerator. 5 dimensions."
END

SECTION Graph
Nodes 15
END

SECTION Coordinates
DDDDD 0 0.5921190123 0.5921190123 0.5921190123 0.5921190123 0.5921190123
DDDDD 1 0.7871168474 0.7871168474 0.7871168474 0.7871168474 0.7871168474
DDDDD 2 0.8626960571 0.8626960571 0.8626960571 0.8626960571 0.8626960571
DDDDD 3 0.4022940902 0.4022940902 0.4022940902 0.4022940902 0.4022940902
DDDDD 4 0.4331044440 0.4331044440 0.4331044440 0.4331044440 0.4331044440
DDDDD 5 0.3224785879 0.3224785879 0.3224785879 0.3224785879 0.3224785879
DDDDD 6 0.1665347033 0.1665347033 0.1665347033 0.1665347033 0.1665347033
DDDDD 7 0.6197118892 0.6197118892 0.6197118892 0.6197118892 0.6197118892
DDDDD 8 0.4428926201 0.4428926201 0.4428926201 0.4428926201 0.4428926201
DDDDD 9 0.5949672445 0.5949672445 0.5949672445 0.5949672445 0.5949672445
DDDDD 10 0.2624237846 0.2624237846 0.2624237846 0.2624237846 0.2624237846
DDDDD 11 0.4864085733 0.4864085733 0.4864085733 0.4864085733 0.4864085733
DDDDD 12 0.4051467089 0.4051467089 0.4051467089 0.4051467089 0.4051467089
DDDDD 13 0.0680107870 0.0680107870 0.0680107870 0.0680107870 0.0680107870
DDDDD 14 0.7012902786 0.7012902786 0.7012902786 0.7012902786 0.7012902786
END
